 vasp.4.6.28 25Jul05 complex
 executed on             LinuxIFC date 2019.02.03  19:07:56

 INCAR:
 POTCAR:   PAW_GGA Cu 05Jan2001
 POTCAR:   PAW_GGA Cu 05Jan2001
   VRHFIN =Cu: d10 p1

   TITEL  = PAW_GGA Cu 05Jan2001
   POMASS =   63.546; ZVAL   =   11.000    mass and valenz
   ENMAX  =  273.246; ENMIN  =  204.934 eV
   QCUT   =   -4.481; QGAM   =    8.963    optimization parameters

   Description
     l     E      TYP  RCUT    TYP  RCUT
     2   .000     23  2.300
     2   .000     23  2.300
     0   .000     23  2.300
     0   .000     23  2.300
     1  -.200     23  2.300
     1   .000     23  2.300
     3   .000      7   .000

 PAW_GGA Cu 05Jan2001                   :

 POSCAR: Cu metal rhomboedrique
  positions in direct lattice

 ion  position               nearest neighbor table
   1  0.000  0.000  0.000-

  LATTYP: Found a face centered cubic cell.
 ALAT       =     3.6200000000

  Lattice vectors:

 A1 = (   1.8100000000,   1.8100000000,   0.0000000000)
 A2 = (   0.0000000000,   1.8100000000,   1.8100000000)
 A3 = (   1.8100000000,   0.0000000000,   1.8100000000)
 Subroutine PRICEL returns:
 Original cell was already a primitive cell.

Analysis of symmetry for initial positions (statically):

 Routine SETGRP: Setting up the symmetry group for a
 face centered cubic supercell.

 Subroutine GETGRP returns: Found 48 space group operations
 (whereof 48 operations were pure point group operations)
 out of a pool of 48 trial point group operations.

The static configuration has the point symmetry O_h .

Analysis of symmetry for dynamics (positions and initial velocities):

 Subroutine DYNSYM returns: Found 48 space group operations
 (whereof 48 operations were pure point group operations)
 out of a pool of 48 trial space group operations
 (whereof 48 operations were pure point group operations)
 and found also     1 'primitive' translations

The dynamic configuration has the point symmetry O_h .

 KPOINTS: Line_mode KPOINTS file
  interpolating k-points between supplied coordinates
  k-points in reciprocal lattice

 I would recommend the setting:
   dimension x,y,z NGX =    10 NGY =   10 NGZ =   10
 SYSTEM =  unknown system
 POSCAR =  Cu metal rhomboedrique

 Startparameter for this run:
   NWRITE =      2    write-flag & timer
   PREC   = medium    medium, high low
   ISTART =      1    job   : 0-new  1-cont  2-samecut
   ICHARG =      0    charge: 1-file 2-atom 10-const
   ISPIN  =      1    spin polarized calculation?
   LNONCOLLINEAR =      F non collinear calculations
   LSORBIT =      F    spin-orbit coupling
   INIWAV =      1    electr: 0-lowe 1-rand  2-diag
   LASPH  =      F    aspherical Exc in radial PAW
   METAGGA=      F    non-selfconsistent MetaGGA calc.

 Electronic Relaxation 1
   ENCUT  =  273.2 eV  20.08 Ry    4.48 a.u.   3.45  3.45  3.45*2*pi/ulx,y,z
   ENINI  =  273.2     initial cutoff
   ENAUG  =  516.5 eV  augmentation charge cutoff
   NELM   =     60;   NELMIN=  2; NELMDL=  0     # of ELM steps
   EDIFF  = 0.1E-03   stopping-criterion for ELM
   LREAL  =      F    real-space projection
   LCOMPAT=      F    compatible to vasp.4.4
   LREAL_COMPAT= F    compatible to vasp.4.5.1-3
   GGA_COMPAT  = T    GGA compatible to vasp.4.4-vasp.4.6
   LMAXPAW     = -100 max onsite density
   LMAXMIX     =    2 max onsite mixed and CHGCAR
   VOSKOWN=      0    Vosko Wilk Nusair interpolation
   ROPT   =    0.00000
 Ionic relaxation
   EDIFFG = 0.1E-02   stopping-criterion for IOM
   NSW    =      0    number of steps for IOM
   NBLOCK =      1;   KBLOCK =      1    inner block; outer block
   IBRION =     -1    ionic relax: 0-MD 1-quasi-New 2-CG
   NFREE  =      0    steps in history (QN), initial steepest desc. (CG)
   ISIF   =      2    stress and relaxation
   IWAVPR =     10    prediction:  0-non 1-charg 2-wave 3-comb
   ISYM   =      2    0-nonsym 1-usesym 2-fastsym
   LCORR  =      T    Harris-Foulkes like correction to forces

   POTIM  =   0.50    time-step for ionic-motion
   TEIN   =    0.0    initial temperature
   TEBEG  =    0.0;   TEEND  =   0.0 temperature during run
   SMASS  =  -3.00    Nose mass-parameter (am)
   estimated Nose-frequenzy (Omega)   =  0.10E-29 period in steps =****** mass=  -0.150E-27a.u.
   NPACO  =    256;   APACO  = 16.0  distance and # of slots for P.C.
   PSTRESS=    0.0 pullay stress

  Mass of Ions in am
   POMASS =  63.55
  Ionic Valenz
   ZVAL   =  11.00
  Atomic Wigner-Seitz radii
   NELECT =      11.0000    total number of electrons
   NUPDOWN=      -1.0000    fix difference up-down

 DOS related values:
   EMIN   =  10.00;   EMAX   =-10.00  energy-range for DOS
   ISMEAR =     0;   SIGMA  =   0.01  broadening in eV -4-tet -1-fermi 0-gaus

 Electronic relaxation 2 (details)
   IALGO  =     38    algorithm
   LDIAG  =      T    sub-space diagonalisation
   IMIX   =      4    mixing-type and parameters
     AMIX     =   0.40;   BMIX     =  1.00
     AMIX_MAG =   1.60;   BMIX_MAG =  1.00
     AMIN     =   0.10
     WC   =   100.;   INIMIX=   1;  MIXPRE=   1

 Intra band minimization:
   WEIMIN = 0.0000     energy-eigenvalue tresh-hold
   EBREAK =  0.28E-05  absolut break condition
   DEPER  =   0.30     relativ break condition

   TIME   =   0.10     timestep for ELM

  volume/ion in A,a.u.               =      11.86        80.03
  Fermi-wavevector in a.u.,eV,Ry     =   1.596555 34.681075  2.548987

 Second variation
   LSECVAR=     F    do a second variation

 Write flags
   LWAVE  =      T    write WAVECAR
   LCHARG =      T    write CHGCAR
   LVTOT  =      F    write LOCPOT, local potential
   LELF   =      F    write electronic localiz. function (ELF)
   LORBIT =     11    0 simple, 1 ext, 2 COOP (PROOUT)

 Dipole corrections
   IDIPOL =      0    1-x, 2-y, 3-z
   LDIPOL =      F    correct potential

 Static calculation
 charge density will be updated during run
 non-spin polarized calculation
 Variant of blocked Davidson
 Davidson routine will perform the subspace rotation
 performe sub-space diagonalisation
    after iterative eigenvector-optimisation
 modified Broyden-mixing scheme, WC =      100.0
 initial mixing is a Kerker type mixing with AMIX =  0.4000 and BMIX =      1.0000
 Hartree-type preconditioning will be used
 using additional bands            6
 reciprocal scheme for non local part
 use partial core corrections
 calculate Harris-corrections to forces
   (improved forces if not selfconsistent)
 use gradient corrections
 use of overlap-Matrix (Vanderbilt PP)
 Gauss-broadening in eV      SIGMA  =   0.01

  energy-cutoff  :      273.25
  volume of cell :       11.86
      direct lattice vectors                 reciprocal lattice vectors
     1.810000000  1.810000000  0.000000000     0.276243094  0.276243094 -0.276243094
     0.000000000  1.810000000  1.810000000    -0.276243094  0.276243094  0.276243094
     1.810000000  0.000000000  1.810000000     0.276243094 -0.276243094  0.276243094

  length of vectors
     2.559726548  2.559726548  2.559726548     0.478467074  0.478467074  0.478467074

 old parameters found on file WAVECAR:
  energy-cutoff  :      273.25
  volume of cell :       11.86
      direct lattice vectors                 reciprocal lattice vectors
     1.810000000  1.810000000  0.000000000     0.276243094  0.276243094 -0.276243094
     0.000000000  1.810000000  1.810000000    -0.276243094  0.276243094  0.276243094
     1.810000000  0.000000000  1.810000000     0.276243094 -0.276243094  0.276243094

  length of vectors

 k-points in units of 2pi/SCALE and weight: Line_mode KPOINTS file
   0.00000000  0.00000000  0.00000000       0.004
   0.02564103 -0.00000000  0.00000000       0.004
   0.05128205 -0.00000000  0.00000000       0.004
   0.07692308  0.00000000 -0.00000000       0.004
   0.10256410 -0.00000000  0.00000000       0.004
   0.12820513  0.00000000 -0.00000000       0.004
   0.15384615  0.00000000 -0.00000000       0.004
   0.17948718 -0.00000000  0.00000000       0.004
   0.20512821 -0.00000000  0.00000000       0.004
   0.23076923  0.00000000 -0.00000000       0.004
   0.25641026  0.00000000 -0.00000000       0.004
   0.28205128 -0.00000000  0.00000000       0.004
   0.30769231  0.00000000 -0.00000000       0.004
   0.33333333  0.00000000 -0.00000000       0.004
   0.35897436 -0.00000000  0.00000000       0.004
   0.38461538  0.00000000 -0.00000000       0.004
   0.41025641 -0.00000000  0.00000000       0.004
   0.43589744  0.00000000 -0.00000000       0.004
   0.46153846  0.00000000 -0.00000000       0.004
   0.48717949  0.00000000 -0.00000000       0.004
   0.51282051  0.00000000 -0.00000000       0.004
   0.53846154  0.00000000 -0.00000000       0.004
   0.56410256 -0.00000000  0.00000000       0.004
   0.58974359  0.00000000 -0.00000000       0.004
   0.61538462  0.00000000 -0.00000000       0.004
   0.64102564 -0.00000000  0.00000000       0.004
   0.66666667  0.00000000 -0.00000000       0.004
   0.69230769  0.00000000 -0.00000000       0.004
   0.71794872 -0.00000000  0.00000000       0.004
   0.74358974 -0.00000000  0.00000000       0.004
   0.76923077  0.00000000 -0.00000000       0.004
   0.79487179 -0.00000000  0.00000000       0.004
   0.82051282 -0.00000000  0.00000000       0.004
   0.84615385  0.00000000 -0.00000000       0.004
   0.87179487  0.00000000 -0.00000000       0.004
   0.89743590 -0.00000000  0.00000000       0.004
   0.92307692  0.00000000 -0.00000000       0.004
   0.94871795 -0.00000000  0.00000000       0.004
   0.97435897  0.00000000 -0.00000000       0.004
   1.00000000  0.00000000  0.00000000       0.004
   1.00000000  0.00000000  0.00000000       0.004
   1.00000000  0.00000000  0.01282051       0.004
   1.00000000  0.00000000  0.02564103       0.004
   1.00000000 -0.00000000  0.03846154       0.004
   1.00000000  0.00000000  0.05128205       0.004
   1.00000000 -0.00000000  0.06410256       0.004
   1.00000000  0.00000000  0.07692308       0.004
   1.00000000  0.00000000  0.08974359       0.004
   1.00000000 -0.00000000  0.10256410       0.004
   1.00000000  0.00000000  0.11538462       0.004
   1.00000000 -0.00000000  0.12820513       0.004
   1.00000000  0.00000000  0.14102564       0.004
   1.00000000  0.00000000  0.15384615       0.004
   1.00000000 -0.00000000  0.16666667       0.004
   1.00000000  0.00000000  0.17948718       0.004
   1.00000000 -0.00000000  0.19230769       0.004
   1.00000000  0.00000000  0.20512821       0.004
   1.00000000  0.00000000  0.21794872       0.004
   1.00000000 -0.00000000  0.23076923       0.004
   1.00000000 -0.00000000  0.24358974       0.004
[...]
   1.00000000  0.08974359  0.08974359       0.004
   1.00000000  0.08333333  0.08333333       0.004
   1.00000000  0.07692308  0.07692308       0.004
   1.00000000  0.07051282  0.07051282       0.004
   1.00000000  0.06410256  0.06410256       0.004
   1.00000000  0.05769231  0.05769231       0.004
   1.00000000  0.05128205  0.05128205       0.004
   1.00000000  0.04487179  0.04487179       0.004
   1.00000000  0.03846154  0.03846154       0.004
   1.00000000  0.03205128  0.03205128       0.004
   1.00000000  0.02564103  0.02564103       0.004
   1.00000000  0.01923077  0.01923077       0.004
   1.00000000  0.01282051  0.01282051       0.004
[...]
   0.53205128  0.06410256  0.53205128       0.004
   0.52884615  0.05769231  0.52884615       0.004
   0.52564103  0.05128205  0.52564103       0.004
   0.52243590  0.04487179  0.52243590       0.004
   0.51923077  0.03846154  0.51923077       0.004
   0.51602564  0.03205128  0.51602564       0.004
   0.51282051  0.02564103  0.51282051       0.004
   0.50961538  0.01923077  0.50961538       0.004
   0.50641026  0.01282051  0.50641026       0.004
   0.50320513  0.00641026  0.50320513       0.004
   0.50000000  0.00000000  0.50000000       0.004

 position of ions in fractional coordinates (direct lattice)
   0.00000000  0.00000000  0.00000000

 position of ions in cartesian coordinates  (Angst):
   0.00000000  0.00000000  0.00000000

 k-point  1 :  0.00000.00000.0000  plane waves:    113
 k-point  2 :  0.01280.00000.0128  plane waves:    117
 k-point  3 :  0.02560.00000.0256  plane waves:    125
 k-point  4 :  0.03850.00000.0385  plane waves:    125
 k-point  5 :  0.05130.00000.0513  plane waves:    125
 k-point  6 :  0.06410.00000.0641  plane waves:    125
 k-point  7 :  0.07690.00000.0769  plane waves:    125
 k-point  8 :  0.08970.00000.0897  plane waves:    125
 k-point  9 :  0.10260.00000.1026  plane waves:    125
 k-point 10 :  0.11540.00000.1154  plane waves:    125
 k-point 11 :  0.12820.00000.1282  plane waves:    125
 k-point 12 :  0.14100.00000.1410  plane waves:    125
 k-point 13 :  0.15380.00000.1538  plane waves:    125
 k-point 14 :  0.16670.00000.1667  plane waves:    129
 k-point 15 :  0.17950.00000.1795  plane waves:    129
 k-point 16 :  0.19230.00000.1923  plane waves:    129
 k-point 17 :  0.20510.00000.2051  plane waves:    129
 k-point 18 :  0.21790.00000.2179  plane waves:    129
 k-point 19 :  0.23080.00000.2308  plane waves:    125
 k-point 20 :  0.24360.00000.2436  plane waves:    125
 k-point 21 :  0.25640.00000.2564  plane waves:    125
 k-point 22 :  0.26920.00000.2692  plane waves:    125
 k-point 23 :  0.28210.00000.2821  plane waves:    125
 k-point 24 :  0.29490.00000.2949  plane waves:    125
 k-point 25 :  0.30770.00000.3077  plane waves:    129
 k-point 26 :  0.32050.00000.3205  plane waves:    129
 k-point 27 :  0.33330.00000.3333  plane waves:    129
 k-point 28 :  0.34620.00000.3462  plane waves:    129
 k-point 29 :  0.35900.00000.3590  plane waves:    121
 k-point 30 :  0.37180.00000.3718  plane waves:    121
 k-point 31 :  0.38460.00000.3846  plane waves:    121
 k-point 32 :  0.39740.00000.3974  plane waves:    117
 k-point 33 :  0.41030.00000.4103  plane waves:    117
 k-point 34 :  0.42310.00000.4231  plane waves:    117
 k-point 35 :  0.43590.00000.4359  plane waves:    117
 k-point 36 :  0.44870.00000.4487  plane waves:    116
 k-point 37 :  0.46150.00000.4615  plane waves:    116
 k-point 38 :  0.47440.00000.4744  plane waves:    116
 k-point 39 :  0.48720.00000.4872  plane waves:    116
 k-point 40 :  0.50000.00000.5000  plane waves:    116
 k-point 41 :  0.50000.00000.5000  plane waves:    116
 k-point 42 :  0.50000.00640.5064  plane waves:    116
 k-point 43 :  0.50000.01280.5128  plane waves:    116
 k-point 44 :  0.50000.01920.5192  plane waves:    116
 k-point 45 :  0.50000.02560.5256  plane waves:    116
 k-point 46 :  0.50000.03210.5321  plane waves:    116
 k-point 47 :  0.50000.03850.5385  plane waves:    116
 k-point 48 :  0.50000.04490.5449  plane waves:    116
 k-point 49 :  0.50000.05130.5513  plane waves:    116
 k-point 50 :  0.50000.05770.5577  plane waves:    116
 k-point 51 :  0.50000.06410.5641  plane waves:    116
 k-point 52 :  0.50000.07050.5705  plane waves:    116
 k-point 53 :  0.50000.07690.5769  plane waves:    118
 k-point 54 :  0.50000.08330.5833  plane waves:    118
 k-point 55 :  0.50000.08970.5897  plane waves:    118
 k-point 56 :  0.50000.09620.5962  plane waves:    118
 k-point 57 :  0.50000.10260.6026  plane waves:    118
 k-point 58 :  0.50000.10900.6090  plane waves:    118
 k-point 59 :  0.50000.11540.6154  plane waves:    120
 k-point 60 :  0.50000.12180.6218  plane waves:    120
[...]
 k-point 85 :  0.50000.27560.7244  plane waves:    116
 k-point 86 :  0.50000.28210.7179  plane waves:    114
 k-point 87 :  0.50000.28850.7115  plane waves:    114
 k-point 88 :  0.50000.29490.7051  plane waves:    114
 k-point 89 :  0.50000.30130.6987  plane waves:    112
 k-point 90 :  0.50000.30770.6923  plane waves:    114
 k-point 91 :  0.50000.31410.6859  plane waves:    114
 k-point 92 :  0.50000.32050.6795  plane waves:    114
 k-point 93 :  0.50000.32690.6731  plane waves:    118
 k-point 94 :  0.50000.33330.6667  plane waves:    118
 k-point 95 :  0.50000.33970.6603  plane waves:    118
 k-point 96 :  0.50000.34620.6538  plane waves:    118
 k-point 97 :  0.50000.35260.6474  plane waves:    118
 k-point 98 :  0.50000.35900.6410  plane waves:    118
 k-point 99 :  0.50000.36540.6346  plane waves:    118
 k-point ** :  0.50000.37180.6282  plane waves:    118
 k-point ** :  0.50000.37820.6218  plane waves:    120
 k-point ** :  0.50000.38460.6154  plane waves:    122
 k-point ** :  0.50000.39100.6090  plane waves:    122
 k-point ** :  0.50000.39740.6026  plane waves:    122
 k-point ** :  0.50000.40380.5962  plane waves:    122
 k-point ** :  0.50000.41030.5897  plane waves:    122
 k-point ** :  0.50000.41670.5833  plane waves:    122
 k-point ** :  0.50000.42310.5769  plane waves:    122
 k-point ** :  0.50000.42950.5705  plane waves:    122
 k-point ** :  0.50000.43590.5641  plane waves:    122
 k-point ** :  0.50000.44230.5577  plane waves:    122
 k-point ** :  0.50000.44870.5513  plane waves:    122
 k-point ** :  0.50000.45510.5449  plane waves:    122
 k-point ** :  0.50000.46150.5385  plane waves:    120
 k-point ** :  0.50000.46790.5321  plane waves:    120
 k-point ** :  0.50000.47440.5256  plane waves:    120
 k-point ** :  0.50000.48080.5192  plane waves:    120
 k-point ** :  0.50000.48720.5128  plane waves:    120
 k-point ** :  0.50000.49360.5064  plane waves:    120
 k-point ** :  0.50000.50000.5000  plane waves:    120
 k-point ** :  0.50000.50000.5000  plane waves:    120
 k-point ** :  0.48720.48720.4872  plane waves:    120
 k-point ** :  0.47440.47440.4744  plane waves:    120
 k-point ** :  0.46150.46150.4615  plane waves:    120
 k-point ** :  0.44870.44870.4487  plane waves:    120
 k-point ** :  0.43590.43590.4359  plane waves:    120
 k-point ** :  0.42310.42310.4231  plane waves:    123
 k-point ** :  0.41030.41030.4103  plane waves:    123
 k-point ** :  0.39740.39740.3974  plane waves:    123
 k-point ** :  0.38460.38460.3846  plane waves:    123
 k-point ** :  0.37180.37180.3718  plane waves:    123
 k-point ** :  0.35900.35900.3590  plane waves:    123
 k-point ** :  0.34620.34620.3462  plane waves:    117
 k-point ** :  0.33330.33330.3333  plane waves:    117
 k-point ** :  0.32050.32050.3205  plane waves:    120
 k-point ** :  0.30770.30770.3077  plane waves:    120
 k-point ** :  0.29490.29490.2949  plane waves:    126
 k-point ** :  0.28210.28210.2821  plane waves:    126
 k-point ** :  0.26920.26920.2692  plane waves:    126
 k-point ** :  0.25640.25640.2564  plane waves:    126
 k-point ** :  0.24360.24360.2436  plane waves:    126
 k-point ** :  0.23080.23080.2308  plane waves:    123
 k-point ** :  0.21790.21790.2179  plane waves:    123
 k-point ** :  0.20510.20510.2051  plane waves:    123
 k-point ** :  0.19230.19230.1923  plane waves:    123
 k-point ** :  0.17950.17950.1795  plane waves:    122
 k-point ** :  0.16670.16670.1667  plane waves:    122
 k-point ** :  0.15380.15380.1538  plane waves:    122
 k-point ** :  0.14100.14100.1410  plane waves:    122
 k-point ** :  0.12820.12820.1282  plane waves:    122
 k-point ** :  0.11540.11540.1154  plane waves:    122
 k-point ** :  0.10260.10260.1026  plane waves:    122
 k-point ** :  0.08970.08970.0897  plane waves:    122
 k-point ** :  0.07690.07690.0769  plane waves:    122
 k-point ** :  0.06410.06410.0641  plane waves:    122
 k-point ** :  0.05130.05130.0513  plane waves:    122
 k-point ** :  0.03850.03850.0385  plane waves:    122
 k-point ** :  0.02560.02560.0256  plane waves:    122
 k-point ** :  0.01280.01280.0128  plane waves:    116
[...]
 k-point ** :  0.54490.08970.5449  plane waves:    116
 k-point ** :  0.54170.08330.5417  plane waves:    116
 k-point ** :  0.53850.07690.5385  plane waves:    116
 k-point ** :  0.53530.07050.5353  plane waves:    116
 k-point ** :  0.53210.06410.5321  plane waves:    116
 k-point ** :  0.52880.05770.5288  plane waves:    116
 k-point ** :  0.52560.05130.5256  plane waves:    116
 k-point ** :  0.52240.04490.5224  plane waves:    116
 k-point ** :  0.51920.03850.5192  plane waves:    116
 k-point ** :  0.51600.03210.5160  plane waves:    116
 k-point ** :  0.51280.02560.5128  plane waves:    116
 k-point ** :  0.50960.01920.5096  plane waves:    116
 k-point ** :  0.50640.01280.5064  plane waves:    116
 k-point ** :  0.50320.00640.5032  plane waves:    116
 k-point ** :  0.50000.00000.5000  plane waves:    116

 maximum and minimum number of plane-waves per node :    129   112

 maximum number of plane-waves:    129
 maximal index in each direction:
   IXMAX=  3   IYMAX=  3   IZMAX=  3
   IXMIN= -4   IYMIN= -3   IZMIN= -4

 WARNING: wrap around error must be expected set NGX to  16
 WARNING: wrap around error must be expected set NGY to  14
 WARNING: wrap around error must be expected set NGZ to  16

 parallel 3dFFT wavefunction:
    minimum data exchange during FFTs selected (reduces bandwidth)
 parallel 3dFFT charge:
    minimum data exchange during FFTs selected (reduces bandwidth)

Broyden mixing: mesh for mixing (old mesh)
   NGX =  7   NGY =  7   NGZ =  7
  (NGX  = 18   NGY  = 18   NGZ  = 18)
 gives a total of    343 points
 charge density for first step will be calculated from the start-wavefunctions

 Maximum index for augmentation-charges          620 (set IRDMAX)

 initial charge from wavefunction
 First call to EWALD:  gamma=   0.777
 Maximum number of real-space cells 3x 3x 3
 Maximum number of reciprocal cells 3x 3x 3

----------------------------------------- Iteration    1(   1)  ---------------------------------------

 eigenvalue-minimisations  :  8732
 total energy-change (2. order) : 0.3445498E+01  (-0.7331390E+02)
 number of electron   10.9999623 magnetization
 augmentation part     7.2019121 magnetization

 Broyden mixing:
  rms(total) = 0.37113E+00    rms(broyden)= 0.34551E+00
  rms(prec ) = 0.97890E+00
  weight for this iteration     100.00

 Free energy of the ion-electron system (eV)
  alpha Z        PSCENC =       107.26033312
  Ewald energy   TEWEN  =     -1103.39027675
  -1/2 Hartree   DENC   =      -285.06339115
  -V(xc)+E(xc)   XCENC  =        43.39506976
  PAW double counting   =      1021.11562088    -1181.64610224
  entropy T*S    EENTRO =        -0.00000027
  eigenvalues    EBANDS =         8.74305231
  atomic energy  EATOM  =      1393.03119264
  free energy    TOTEN  =         3.44549830 eV

  energy without entropy =        3.44549856  energy(sigma->0) =        3.44549843

[...]

 eigenvalue-minimisations  :  6388
 total energy-change (2. order) :-0.7673846E+01  (-0.7107670E+01)
 number of electron   10.9999614 magnetization
 augmentation part     7.3611524 magnetization

[...]

 eigenvalues of (default mixing * dielectric matrix)
  average eigenvalue GAMMA=   0.4701
  0.4701

[...]

 eigenvalue-minimisations  :  6872
 total energy-change (2. order) :-0.3130469E+00  (-0.1129649E+00)
 number of electron   10.9999607 magnetization
 augmentation part     7.4921725 magnetization

[...]

 Broyden mixing:
  rms(total) = 0.42049E-02    rms(broyden)= 0.41954E-02
  rms(prec ) = 0.17007E-01
  weight for this iteration     100.00

 eigenvalues of (default mixing * dielectric matrix)
  average eigenvalue GAMMA=   1.6373
  2.9939  2.5297  1.0142  0.8243  0.8243

[...]

----------------------------------------- Iteration    1(   7)  ---------------------------------------

 eigenvalue-minimisations  :  4532
 total energy-change (2. order) : 0.2882460E-05  (-0.6707688E-05)
 number of electron   10.9999621 magnetization
 augmentation part     7.2438508 magnetization

 Free energy of the ion-electron system (eV)
  alpha Z        PSCENC =       107.26033312
  Ewald energy   TEWEN  =     -1103.39027675
  -1/2 Hartree   DENC   =      -309.35667837
  -V(xc)+E(xc)   XCENC  =        42.83982190
  PAW double counting   =      1108.28108756    -1253.62778977
  entropy T*S    EENTRO =        -0.00000000
  eigenvalues    EBANDS =        10.73597444
  atomic energy  EATOM  =      1393.03119264
  free energy    TOTEN  =        -4.22633524 eV

  energy without entropy =       -4.22633524  energy(sigma->0) =       -4.22633524

 average (electrostatic) potential at core
  the test charge radii are     1.0053
  (the norm of the test charge is              1.0000)
       1 -39.7041

 E-fermi :   4.7768     XC(G=0): -12.7652     alpha+bet : -9.6029
   add alpha+bet to get absolut eigen values

 k-point   1 :       0.0000    0.0000    0.0000
  band No.  band energies     occupation
      1      -5.5297      2.00000
      2       1.0655      2.00000
      3       1.0655      2.00000
      4       1.0655      2.00000
      5       1.9064      2.00000
      6       1.9064      2.00000
      7      26.8868      0.00000
      8      29.1586      0.00000
      9      29.1589      0.00000
     10      29.1589      0.00000
     11      31.9928      0.00000
     12      31.9931      0.00000

[...]

 k-point 240 :       0.5000    0.0000    0.5000
  band No.  band energies     occupation
      1      -0.8724      2.00000
      2      -0.3712      2.00000
      3       2.4682      2.00000
      4       2.6345      2.00000
      5       2.6345      2.00000
      6       5.3036      0.00000
      7      11.0169      0.00000
      8      16.9020      0.00000
      9      16.9021      0.00000
     10      21.5997      0.00000
     11      24.0854      0.00000
     12      47.2218      0.00000

 soft charge-density along one line, spin component           1
         0         1         2         3         4         5         6         7         8         9
 total charge-density along one line

------------------------ aborting loop because EDIFF is reached ----------------------------------------

 total charge

# of ion     s       p       d       tot
  1        0.457   0.316   9.296  10.069

  FREE ENERGIE OF THE ION-ELECTRON SYSTEM (eV)
  free  energy   TOTEN  =        -4.226335 eV

  energy  without entropy=       -4.226335  energy(sigma->0) =       -4.226335

  FORCE on cell =-STRESS in cart. coord.  units (eV/reduce length):
  Direction    X        Y        Z        XY       YZ       ZX
  Alpha Z    107.26    107.26    107.26
  Ewald     -367.80   -367.80   -367.80      0.00      0.00      0.00
  Hartree    103.24    103.24    103.24      0.00      0.00      0.00
  E(xc)      -63.17    -63.17    -63.17      0.00      0.00      0.00
  Local      123.65    123.65    123.65      0.00      0.00      0.00
  n-local    -39.46    -37.95    -37.03     -0.23     -0.43     -0.41
  augment     55.70     55.70     55.70     -0.00     -0.00     -0.00
  Kinetic     81.99     78.30     78.00      1.63      1.51      2.19
  Total        0.17      0.17      0.17     -0.00     -0.00     -0.00
  in kB       22.71     22.71     22.71     -0.00     -0.00     -0.00

 VOLUME and BASIS-vectors are now :
  energy-cutoff  :      273.25
  volume of cell :       11.86
      direct lattice vectors                 reciprocal lattice vectors
     1.810000000  1.810000000  0.000000000     0.276243094  0.276243094 -0.276243094
     0.000000000  1.810000000  1.810000000    -0.276243094  0.276243094  0.276243094
     1.810000000  0.000000000  1.810000000     0.276243094 -0.276243094  0.276243094

  length of vectors
     2.559726548  2.559726548  2.559726548     0.478467074  0.478467074  0.478467074

 FORCES acting on ions
    electron-ion (+dipol)            ewald-force                    non-local-force                 convergence-correction
   -.378E-13 0.140E-14 -.275E-13   0.300E-14 0.640E-15 -.775E-16   0.961E-23 -.260E-23 0.299E-23   -.505E-13 -.449E-13 -.259E-14
   -.378E-13 0.140E-14 -.275E-13   0.300E-14 0.640E-15 -.775E-16   0.961E-23 -.260E-23 0.299E-23   -.505E-13 -.449E-13 -.259E-14

 POSITION                                       TOTAL-FORCE (eV/Angst)
      0.00000      0.00000      0.00000        -0.000000     -0.000000      0.000000
    total drift:                               -0.000000     -0.000000     -0.000000

 mean value of Nose-termostat <S>:     1.000 mean value of <T> :     0.000
 mean temperature <T/S>/<1/S>  :     0.000

 writing wavefunctions

 total charge

# of ion     s       p       d       tot
  1        0.457   0.316   9.296  10.069