 vasp.4.6.28 25Jul05 complex
 executed on             LinuxIFC date 2019.02.03  18:59:57

 INCAR:
 POTCAR:   PAW_GGA Cu 05Jan2001
 POTCAR:   PAW_GGA Cu 05Jan2001
   VRHFIN =Cu: d10 p1

   TITEL  = PAW_GGA Cu 05Jan2001
   POMASS =   63.546; ZVAL   =   11.000    mass and valenz
   ENMAX  =  273.246; ENMIN  =  204.934 eV
   QCUT   =   -4.481; QGAM   =    8.963    optimization parameters

   Description
     l     E      TYP  RCUT    TYP  RCUT
     2   .000     23  2.300
     2   .000     23  2.300
     0   .000     23  2.300
     0   .000     23  2.300
     1  -.200     23  2.300
     1   .000     23  2.300
     3   .000      7   .000

 PAW_GGA Cu 05Jan2001                   :

 POSCAR: Cu metal rhomboedrique
  positions in direct lattice

 ion  position               nearest neighbor table
   1  0.000  0.000  0.000-

  LATTYP: Found a face centered cubic cell.
 ALAT       =     3.6200000000

  Lattice vectors:

 A1 = (   1.8100000000,   1.8100000000,   0.0000000000)
 A2 = (   0.0000000000,   1.8100000000,   1.8100000000)
 A3 = (   1.8100000000,   0.0000000000,   1.8100000000)
 Subroutine PRICEL returns:
 Original cell was already a primitive cell.

Analysis of symmetry for initial positions (statically):

 Routine SETGRP: Setting up the symmetry group for a
 face centered cubic supercell.

 Subroutine GETGRP returns: Found 48 space group operations
 (whereof 48 operations were pure point group operations)
 out of a pool of 48 trial point group operations.

The static configuration has the point symmetry O_h .

Analysis of symmetry for dynamics (positions and initial velocities):

 Subroutine DYNSYM returns: Found 48 space group operations
 (whereof 48 operations were pure point group operations)
 out of a pool of 48 trial space group operations
 (whereof 48 operations were pure point group operations)
 and found also     1 'primitive' translations

The dynamic configuration has the point symmetry O_h .

 KPOINTS: Automatic mesh

Automatic generation of k-mesh.
 generate k-points for:  48  48  48

 Subroutine IBZKPT returns following result:

 Found   2769 irreducible k-points:

 Following reciprocal coordinates:
            Coordinates               Weight
  0.000000  0.000000  0.000000      1.000000
  0.020833 -0.000000 -0.000000      8.000000
  0.041667 -0.000000 -0.000000      8.000000
  0.062500 -0.000000 -0.000000      8.000000
  0.083333 -0.000000  0.000000      8.000000
  0.104167 -0.000000 -0.000000      8.000000
  0.125000 -0.000000 -0.000000      8.000000
  0.145833 -0.000000 -0.000000      8.000000
  0.166667 -0.000000 -0.000000      8.000000
  0.187500 -0.000000 -0.000000      8.000000
  0.208333 -0.000000  0.000000      8.000000
  0.229167 -0.000000 -0.000000      8.000000
  0.250000 -0.000000 -0.000000      8.000000
  0.270833 -0.000000 -0.000000      8.000000
  0.291667 -0.000000 -0.000000      8.000000
  0.312500 -0.000000 -0.000000      8.000000
  0.333333 -0.000000 -0.000000      8.000000
  0.354167 -0.000000 -0.000000      8.000000
  0.375000 -0.000000 -0.000000      8.000000
  0.395833 -0.000000 -0.000000      8.000000
  0.416667 -0.000000 -0.000000      8.000000
  0.437500 -0.000000 -0.000000      8.000000
  0.458333  0.000000  0.000000      8.000000
  0.479167  0.000000  0.000000      8.000000
  0.500000 -0.000000 -0.000000      4.000000
  0.020833  0.020833 -0.000000      6.000000
  0.041667  0.020833 -0.000000     24.000000
  0.062500  0.020833 -0.000000     24.000000
  0.083333  0.020833 -0.000000     24.000000
  0.104167  0.020833 -0.000000     24.000000
  0.125000  0.020833 -0.000000     24.000000
  0.145833  0.020833 -0.000000     24.000000
  0.166667  0.020833  0.000000     24.000000
  0.187500  0.020833 -0.000000     24.000000
  0.208333  0.020833 -0.000000     24.000000
  0.229167  0.020833 -0.000000     24.000000
  0.250000  0.020833 -0.000000     24.000000
  0.270833  0.020833 -0.000000     24.000000
  0.291667  0.020833 -0.000000     24.000000
  0.312500  0.020833 -0.000000     24.000000
  0.333333  0.020833 -0.000000     24.000000
  0.354167  0.020833 -0.000000     24.000000
  0.375000  0.020833 -0.000000     24.000000
  0.395833  0.020833 -0.000000     24.000000
  0.416667  0.020833 -0.000000     24.000000
  0.437500  0.020833 -0.000000     24.000000
  0.458333  0.020833 -0.000000     24.000000
  0.479167  0.020833 -0.000000     24.000000
  0.500000  0.020833  0.000000     24.000000
 -0.479167  0.020833  0.000000     24.000000
 -0.458333  0.020833 -0.000000     24.000000
 -0.437500  0.020833 -0.000000     24.000000
 -0.416667  0.020833  0.000000     24.000000
 -0.395833  0.020833 -0.000000     24.000000
 -0.375000  0.020833 -0.000000     24.000000
 -0.354167  0.020833  0.000000     24.000000
 -0.333333  0.020833 -0.000000     24.000000
 -0.312500  0.020833  0.000000     24.000000
 -0.291667  0.020833  0.000000     24.000000
 -0.270833  0.020833  0.000000     24.000000
[...]
 -0.291667  0.458333  0.208333     48.000000
 -0.270833  0.458333  0.208333     48.000000
 -0.250000  0.458333  0.208333     24.000000
 -0.312500  0.479167  0.208333     24.000000
 -0.291667  0.479167  0.208333     48.000000
 -0.270833  0.479167  0.208333     24.000000
 -0.291667  0.500000  0.208333     12.000000
 -0.312500  0.458333  0.229167     24.000000
 -0.291667  0.458333  0.229167     48.000000
 -0.270833  0.458333  0.229167     24.000000
 -0.291667  0.479167  0.229167     24.000000
 -0.270833  0.479167  0.229167     48.000000
 -0.250000  0.479167  0.229167     24.000000
 -0.270833  0.500000  0.229167     12.000000
 -0.250000  0.500000  0.250000      6.000000

 Following cartesian coordinates:
            Coordinates               Weight
  0.000000  0.000000  0.000000      1.000000
  0.020833  0.020833 -0.020833      8.000000
  0.041667  0.041667 -0.041667      8.000000
  0.062500  0.062500 -0.062500      8.000000
  0.083333  0.083333 -0.083333      8.000000
  0.104167  0.104167 -0.104167      8.000000
  0.125000  0.125000 -0.125000      8.000000
  0.145833  0.145833 -0.145833      8.000000
  0.166667  0.166667 -0.166667      8.000000
  0.187500  0.187500 -0.187500      8.000000
  0.208333  0.208333 -0.208333      8.000000
  0.229167  0.229167 -0.229167      8.000000
  0.250000  0.250000 -0.250000      8.000000
  0.270833  0.270833 -0.270833      8.000000
  0.291667  0.291667 -0.291667      8.000000
  0.312500  0.312500 -0.312500      8.000000
  0.333333  0.333333 -0.333333      8.000000
  0.354167  0.354167 -0.354167      8.000000
  0.375000  0.375000 -0.375000      8.000000
  0.395833  0.395833 -0.395833      8.000000
  0.416667  0.416667 -0.416667      8.000000
  0.437500  0.437500 -0.437500      8.000000
  0.458333  0.458333 -0.458333      8.000000
  0.479167  0.479167 -0.479167      8.000000
  0.500000  0.500000 -0.500000      4.000000
 -0.000000  0.041667  0.000000      6.000000
  0.020833  0.062500 -0.020833     24.000000
  0.041667  0.083333 -0.041667     24.000000
  0.062500  0.104167 -0.062500     24.000000
  0.083333  0.125000 -0.083333     24.000000
  0.104167  0.145833 -0.104167     24.000000
  0.125000  0.166667 -0.125000     24.000000
  0.145833  0.187500 -0.145833     24.000000
  0.166667  0.208333 -0.166667     24.000000
  0.187500  0.229167 -0.187500     24.000000
  0.208333  0.250000 -0.208333     24.000000
  0.229167  0.270833 -0.229167     24.000000
  0.250000  0.291667 -0.250000     24.000000
  0.270833  0.312500 -0.270833     24.000000
  0.291667  0.333333 -0.291667     24.000000
  0.312500  0.354167 -0.312500     24.000000
  0.333333  0.375000 -0.333333     24.000000
  0.354167  0.395833 -0.354167     24.000000
  0.375000  0.416667 -0.375000     24.000000
  0.395833  0.437500 -0.395833     24.000000
  0.416667  0.458333 -0.416667     24.000000
  0.437500  0.479167 -0.437500     24.000000
  0.458333  0.500000 -0.458333     24.000000
  0.479167  0.520833 -0.479167     24.000000
 -0.500000 -0.458333  0.500000     24.000000
 -0.479167 -0.437500  0.479167     24.000000
 -0.458333 -0.416667  0.458333     24.000000
 -0.437500 -0.395833  0.437500     24.000000
 -0.416667 -0.375000  0.416667     24.000000
 -0.395833 -0.354167  0.395833     24.000000
 -0.375000 -0.333333  0.375000     24.000000
 -0.354167 -0.312500  0.354167     24.000000
 -0.333333 -0.291667  0.333333     24.000000
 -0.312500 -0.270833  0.312500     24.000000
 -0.291667 -0.250000  0.291667     24.000000
[...]
 -0.541667 -0.041667  0.958333     48.000000
 -0.520833 -0.020833  0.937500     48.000000
 -0.500000  0.000000  0.916667     24.000000
 -0.583333 -0.041667  1.000000     24.000000
 -0.562500 -0.020833  0.979167     48.000000
 -0.541667  0.000000  0.958333     24.000000
 -0.583333  0.000000  1.000000     12.000000
 -0.541667 -0.083333  1.000000     24.000000
 -0.520833 -0.062500  0.979167     48.000000
 -0.500000 -0.041667  0.958333     24.000000
 -0.541667 -0.041667  1.000000     24.000000
 -0.520833 -0.020833  0.979167     48.000000
 -0.500000  0.000000  0.958333     24.000000
 -0.541667 -0.000000  1.000000     12.000000
 -0.500000  0.000000  1.000000      6.000000

 TETIRR: Found  14386 inequivalent tetrahedra from   663552

 I would recommend the setting:
   dimension x,y,z NGX =    10 NGY =   10 NGZ =   10
 SYSTEM =  unknown system
 POSCAR =  Cu metal rhomboedrique

 Startparameter for this run:
   NWRITE =      2    write-flag & timer
   PREC   = medium    medium, high low
   ISTART =      1    job   : 0-new  1-cont  2-samecut
   ICHARG =      0    charge: 1-file 2-atom 10-const
   ISPIN  =      1    spin polarized calculation?
   LNONCOLLINEAR =      F non collinear calculations
   LSORBIT =      F    spin-orbit coupling
   INIWAV =      1    electr: 0-lowe 1-rand  2-diag
   LASPH  =      F    aspherical Exc in radial PAW
   METAGGA=      F    non-selfconsistent MetaGGA calc.

 Electronic Relaxation 1
   ENCUT  =  273.2 eV  20.08 Ry    4.48 a.u.   3.45  3.45  3.45*2*pi/ulx,y,z
   ENINI  =  273.2     initial cutoff
   ENAUG  =  516.5 eV  augmentation charge cutoff
   NELM   =     60;   NELMIN=  2; NELMDL=  0     # of ELM steps
   EDIFF  = 0.1E-03   stopping-criterion for ELM
   LREAL  =      F    real-space projection
   LCOMPAT=      F    compatible to vasp.4.4
   LREAL_COMPAT= F    compatible to vasp.4.5.1-3
   GGA_COMPAT  = T    GGA compatible to vasp.4.4-vasp.4.6
   LMAXPAW     = -100 max onsite density
   LMAXMIX     =    2 max onsite mixed and CHGCAR
   VOSKOWN=      0    Vosko Wilk Nusair interpolation
   ROPT   =    0.00000
 Ionic relaxation
   EDIFFG = 0.1E-02   stopping-criterion for IOM
   NSW    =      0    number of steps for IOM
   NBLOCK =      1;   KBLOCK =      1    inner block; outer block
   IBRION =     -1    ionic relax: 0-MD 1-quasi-New 2-CG
   NFREE  =      0    steps in history (QN), initial steepest desc. (CG)
   ISIF   =      2    stress and relaxation
   IWAVPR =     10    prediction:  0-non 1-charg 2-wave 3-comb
   ISYM   =      2    0-nonsym 1-usesym 2-fastsym
   LCORR  =      T    Harris-Foulkes like correction to forces

   POTIM  =   0.50    time-step for ionic-motion
   TEIN   =    0.0    initial temperature
   TEBEG  =    0.0;   TEEND  =   0.0 temperature during run
   SMASS  =  -3.00    Nose mass-parameter (am)
[...]
  -0.29166667  0.02083333  0.00000000       0.000
  -0.27083333  0.02083333  0.00000000       0.000
[...]
  -0.29166667  0.45833333  0.20833333       0.000
  -0.27083333  0.45833333  0.20833333       0.000
  -0.25000000  0.45833333  0.20833333       0.000
  -0.31250000  0.47916667  0.20833333       0.000
  -0.29166667  0.47916667  0.20833333       0.000
  -0.27083333  0.47916667  0.20833333       0.000
  -0.29166667  0.50000000  0.20833333       0.000
  -0.31250000  0.45833333  0.22916667       0.000
  -0.29166667  0.45833333  0.22916667       0.000
  -0.27083333  0.45833333  0.22916667       0.000
  -0.29166667  0.47916667  0.22916667       0.000
  -0.27083333  0.47916667  0.22916667       0.000
  -0.25000000  0.47916667  0.22916667       0.000
  -0.27083333  0.50000000  0.22916667       0.000
  -0.25000000  0.50000000  0.25000000       0.000

 position of ions in fractional coordinates (direct lattice)
   0.00000000  0.00000000  0.00000000

 position of ions in cartesian coordinates  (Angst):
   0.00000000  0.00000000  0.00000000

 k-point  1 :  0.00000.00000.0000  plane waves:    113
 k-point  2 :  0.0208-.0000-.0000  plane waves:    116
 k-point  3 :  0.0417-.0000-.0000  plane waves:    122
 k-point  4 :  0.0625-.0000-.0000  plane waves:    122
 k-point  5 :  0.0833-.00000.0000  plane waves:    122
 k-point  6 :  0.1042-.0000-.0000  plane waves:    122
 k-point  7 :  0.1250-.0000-.0000  plane waves:    122
 k-point  8 :  0.1458-.0000-.0000  plane waves:    122
 k-point  9 :  0.1667-.0000-.0000  plane waves:    122
 k-point 10 :  0.1875-.0000-.0000  plane waves:    123
 k-point 11 :  0.2083-.00000.0000  plane waves:    123
 k-point 12 :  0.2292-.0000-.0000  plane waves:    123
 k-point 13 :  0.2500-.0000-.0000  plane waves:    126
 k-point 14 :  0.2708-.0000-.0000  plane waves:    126
 k-point 15 :  0.2917-.0000-.0000  plane waves:    126
 k-point 16 :  0.3125-.0000-.0000  plane waves:    120
 k-point 17 :  0.3333-.0000-.0000  plane waves:    117
 k-point 18 :  0.3542-.0000-.0000  plane waves:    117
 k-point 19 :  0.3750-.0000-.0000  plane waves:    123
 k-point 20 :  0.3958-.0000-.0000  plane waves:    123
 k-point 21 :  0.4167-.0000-.0000  plane waves:    123
 k-point 22 :  0.4375-.0000-.0000  plane waves:    120
 k-point 23 :  0.45830.00000.0000  plane waves:    120
 k-point 24 :  0.47920.00000.0000  plane waves:    120
 k-point 25 :  0.5000-.0000-.0000  plane waves:    120
 k-point 26 :  0.02080.0208-.0000  plane waves:    117
 k-point 27 :  0.04170.0208-.0000  plane waves:    121
 k-point 28 :  0.06250.0208-.0000  plane waves:    121
 k-point 29 :  0.08330.0208-.0000  plane waves:    123
 k-point 30 :  0.10420.0208-.0000  plane waves:    123
 k-point 31 :  0.12500.0208-.0000  plane waves:    123
 k-point 32 :  0.14580.0208-.0000  plane waves:    123
 k-point 33 :  0.16670.02080.0000  plane waves:    123
 k-point 34 :  0.18750.0208-.0000  plane waves:    123
 k-point 35 :  0.20830.0208-.0000  plane waves:    124
 k-point 36 :  0.22920.0208-.0000  plane waves:    123
 k-point 37 :  0.25000.0208-.0000  plane waves:    124
 k-point 38 :  0.27080.0208-.0000  plane waves:    126
 k-point 39 :  0.29170.0208-.0000  plane waves:    124
 k-point 40 :  0.31250.0208-.0000  plane waves:    122
 k-point 41 :  0.33330.0208-.0000  plane waves:    120
 k-point 42 :  0.35420.0208-.0000  plane waves:    119
 k-point 43 :  0.37500.0208-.0000  plane waves:    121
 k-point 44 :  0.39580.0208-.0000  plane waves:    123
 k-point 45 :  0.41670.0208-.0000  plane waves:    123
 k-point 46 :  0.43750.0208-.0000  plane waves:    121
 k-point 47 :  0.45830.0208-.0000  plane waves:    120
 k-point 48 :  0.47920.0208-.0000  plane waves:    120
 k-point 49 :  0.50000.02080.0000  plane waves:    120
 k-point 50 :  -.47920.02080.0000  plane waves:    120
 k-point 51 :  -.45830.0208-.0000  plane waves:    120
 k-point 52 :  -.43750.0208-.0000  plane waves:    120
 k-point 53 :  -.41670.02080.0000  plane waves:    122
 k-point 54 :  -.39580.0208-.0000  plane waves:    123
 k-point 55 :  -.37500.0208-.0000  plane waves:    121
 k-point 56 :  -.35420.02080.0000  plane waves:    121
 k-point 57 :  -.33330.0208-.0000  plane waves:    119
 k-point 58 :  -.31250.02080.0000  plane waves:    119
 k-point 59 :  -.29170.02080.0000  plane waves:    122
 k-point 60 :  -.27080.02080.0000  plane waves:    126
[...]
 k-point 85 :  0.29170.0417-.0000  plane waves:    125
 k-point 86 :  0.31250.0417-.0000  plane waves:    125
 k-point 87 :  0.33330.0417-.0000  plane waves:    121
 k-point 88 :  0.35420.0417-.0000  plane waves:    120
 k-point 89 :  0.37500.0417-.0000  plane waves:    120
 k-point 90 :  0.39580.04170.0000  plane waves:    122
 k-point 91 :  0.41670.0417-.0000  plane waves:    121
 k-point 92 :  0.43750.0417-.0000  plane waves:    121
 k-point 93 :  0.45830.04170.0000  plane waves:    121
 k-point 94 :  0.47920.0417-.0000  plane waves:    120
 k-point 95 :  0.50000.04170.0000  plane waves:    120
 k-point 96 :  -.47920.04170.0000  plane waves:    120
 k-point 97 :  -.45830.04170.0000  plane waves:    120
 k-point 98 :  -.43750.0417-.0000  plane waves:    120
 k-point 99 :  -.41670.04170.0000  plane waves:    120
 k-point ** :  -.39580.0417-.0000  plane waves:    120
 k-point ** :  -.37500.04170.0000  plane waves:    122
 k-point ** :  -.35420.04170.0000  plane waves:    122
 k-point ** :  -.33330.04170.0000  plane waves:    122
 k-point ** :  -.31250.04170.0000  plane waves:    122
 k-point ** :  -.29170.04170.0000  plane waves:    125
 k-point ** :  -.27080.04170.0000  plane waves:    125
 k-point ** :  -.25000.04170.0000  plane waves:    126
 k-point ** :  -.22920.0417-.0000  plane waves:    126
 k-point ** :  -.20830.04170.0000  plane waves:    124
 k-point ** :  -.18750.04170.0000  plane waves:    126
 k-point ** :  -.16670.04170.0000  plane waves:    125
 k-point ** :  -.14580.04170.0000  plane waves:    125
 k-point ** :  -.12500.04170.0000  plane waves:    125
 k-point ** :  -.10420.0417-.0000  plane waves:    125
 k-point ** :  -.08330.04170.0000  plane waves:    125
 k-point ** :  -.06250.04170.0000  plane waves:    123
 k-point ** :  -.04170.04170.0000  plane waves:    123
 k-point ** :  0.06250.0625-.0000  plane waves:    125
 k-point ** :  0.08330.0625-.0000  plane waves:    125
 k-point ** :  0.10420.0625-.0000  plane waves:    123
 k-point ** :  0.12500.06250.0000  plane waves:    123
 k-point ** :  0.14580.06250.0000  plane waves:    123
 k-point ** :  0.16670.0625-.0000  plane waves:    125
 k-point ** :  0.18750.0625-.0000  plane waves:    125
 k-point ** :  0.20830.0625-.0000  plane waves:    126
 k-point ** :  0.22920.0625-.0000  plane waves:    127
 k-point ** :  0.25000.0625-.0000  plane waves:    127
 k-point ** :  0.27080.06250.0000  plane waves:    127
 k-point ** :  0.29170.0625-.0000  plane waves:    129
 k-point ** :  0.31250.0625-.0000  plane waves:    129
 k-point ** :  0.33330.0625-.0000  plane waves:    125
 k-point ** :  0.35420.0625-.0000  plane waves:    121
 k-point ** :  0.37500.0625-.0000  plane waves:    120
 k-point ** :  0.39580.0625-.0000  plane waves:    120
 k-point ** :  0.41670.0625-.0000  plane waves:    122
 k-point ** :  0.43750.0625-.0000  plane waves:    120
 k-point ** :  0.45830.0625-.0000  plane waves:    120
 k-point ** :  0.47920.0625-.0000  plane waves:    122
 k-point ** :  0.50000.06250.0000  plane waves:    121
 k-point ** :  -.47920.06250.0000  plane waves:    122
 k-point ** :  -.45830.06250.0000  plane waves:    121
 k-point ** :  -.43750.06250.0000  plane waves:    119
 k-point ** :  -.41670.0625-.0000  plane waves:    121
 k-point ** :  -.39580.0625-.0000  plane waves:    121
 k-point ** :  -.37500.06250.0000  plane waves:    121
 k-point ** :  -.35420.06250.0000  plane waves:    121
 k-point ** :  -.33330.06250.0000  plane waves:    122
 k-point ** :  -.31250.06250.0000  plane waves:    120
 k-point ** :  -.29170.06250.0000  plane waves:    126
 k-point ** :  -.27080.06250.0000  plane waves:    128
 k-point ** :  -.25000.06250.0000  plane waves:    126
 k-point ** :  -.22920.06250.0000  plane waves:    128
 k-point ** :  -.20830.06250.0000  plane waves:    128
 k-point ** :  -.18750.06250.0000  plane waves:    126
 k-point ** :  -.16670.06250.0000  plane waves:    126
 k-point ** :  -.14580.0625-.0000  plane waves:    125
 k-point ** :  -.12500.06250.0000  plane waves:    125
 k-point ** :  -.10420.06250.0000  plane waves:    125
 k-point ** :  -.08330.06250.0000  plane waves:    123
[...]
 k-point ** :  -.29170.45830.2083  plane waves:    115
 k-point ** :  -.27080.45830.2083  plane waves:    116
 k-point ** :  -.25000.45830.2083  plane waves:    114
 k-point ** :  -.31250.47920.2083  plane waves:    114
 k-point ** :  -.29170.47920.2083  plane waves:    116
 k-point ** :  -.27080.47920.2083  plane waves:    116
 k-point ** :  -.29170.50000.2083  plane waves:    116
 k-point ** :  -.31250.45830.2292  plane waves:    114
 k-point ** :  -.29170.45830.2292  plane waves:    114
 k-point ** :  -.27080.45830.2292  plane waves:    116
 k-point ** :  -.29170.47920.2292  plane waves:    116
 k-point ** :  -.27080.47920.2292  plane waves:    116
 k-point ** :  -.25000.47920.2292  plane waves:    116
 k-point ** :  -.27080.50000.2292  plane waves:    116
 k-point ** :  -.25000.50000.2500  plane waves:    116

 maximum and minimum number of plane-waves per node :    131   112

 maximum number of plane-waves:    131
 maximal index in each direction:
   IXMAX=  3   IYMAX=  3   IZMAX=  3
   IXMIN= -3   IYMIN= -3   IZMIN= -3

 WARNING: wrap around error must be expected set NGX to  14
 WARNING: wrap around error must be expected set NGY to  14
 WARNING: wrap around error must be expected set NGZ to  14

 parallel 3dFFT wavefunction:
    minimum data exchange during FFTs selected (reduces bandwidth)
 parallel 3dFFT charge:
    minimum data exchange during FFTs selected (reduces bandwidth)

Broyden mixing: mesh for mixing (old mesh)
   NGX =  7   NGY =  7   NGZ =  7
  (NGX  = 18   NGY  = 18   NGZ  = 18)
 gives a total of    343 points
 charge density for first step will be calculated from the start-wavefunctions

 Maximum index for augmentation-charges          388 (set IRDMAX)

 initial charge from wavefunction
 First call to EWALD:  gamma=   0.777
 Maximum number of real-space cells 3x 3x 3
 Maximum number of reciprocal cells 3x 3x 3

----------------------------------------- Iteration    1(   1)  ---------------------------------------

 BZINTS: Fermi energy:  3.752390; 11.000000 electrons
         Band energy:   7.422775;  BLOECHL correction: -0.003492

 eigenvalue-minimisations  : 45472
 total energy-change (2. order) :-0.3723617E+01  (-0.4328402E-06)
 number of electron   10.9999627 magnetization
 augmentation part     7.1907400 magnetization

 Broyden mixing:
  rms(total) = 0.40558E-03    rms(broyden)= 0.39766E-03
  rms(prec ) = 0.15165E-02
  weight for this iteration     100.00

 Free energy of the ion-electron system (eV)
  alpha Z        PSCENC =       107.26033312
  Ewald energy   TEWEN  =     -1103.39027675
  -1/2 Hartree   DENC   =      -305.48587087
  -V(xc)+E(xc)   XCENC  =        42.64263135
  PAW double counting   =      1099.65514731    -1244.85954876
  entropy T*S    EENTRO =         0.00000000
  eigenvalues    EBANDS =         7.42277478
  atomic energy  EATOM  =      1393.03119264
  free energy    TOTEN  =        -3.72361719 eV

  energy without entropy =       -3.72361719  energy(sigma->0) =       -3.72361719

----------------------------------------- Iteration    1(   2)  ---------------------------------------

[...]

 eigenvalue-minimisations  : 44920
 total energy-change (2. order) :-0.1575213E-06  (-0.5642155E-06)
 number of electron   10.9999627 magnetization
 augmentation part     7.1907400 magnetization

 Free energy of the ion-electron system (eV)
  alpha Z        PSCENC =       107.26033312
  Ewald energy   TEWEN  =     -1103.39027675
  -1/2 Hartree   DENC   =      -305.47228280
  -V(xc)+E(xc)   XCENC  =        42.64193116
  PAW double counting   =      1099.63028276    -1244.82729899
  entropy T*S    EENTRO =         0.00000000
  eigenvalues    EBANDS =         7.40250151
  atomic energy  EATOM  =      1393.03119264
  free energy    TOTEN  =        -3.72361735 eV

  energy without entropy =       -3.72361735  energy(sigma->0) =       -3.72361735

 average (electrostatic) potential at core
  the test charge radii are     1.0053
  (the norm of the test charge is              1.0000)
       1 -40.1268

 E-fermi :   3.7511     XC(G=0): -12.8066     alpha+bet : -9.6029
   add alpha+bet to get absolut eigen values

 k-point   1 :       0.0000    0.0000    0.0000
  band No.  band energies     occupation
      1      -5.5470      2.00000
      2       0.6695      2.00000
      3       0.6696      2.00000
      4       0.6696      2.00000
      5       1.4889      2.00000
      6       1.4889      2.00000
      7      26.8845      0.00000
      8      29.1240      0.00000
      9      29.1241      0.00000
     10      29.1241      0.00000
     11      31.8970      0.00000
     12      31.8971      0.00000
     13      31.8973      0.00000
     14      35.3418      0.00000
     15      40.3103      0.00000
     16      40.3105      0.00000

[...]

 k-point *** :      -0.2500    0.5000    0.2500
  band No.  band energies     occupation
      1      -0.4162      2.00000
      2       0.1750      2.00000
      3       0.1751      2.00000
      4       1.4507      2.00000
      5       2.1892      2.00000
      6       9.9540      0.00000
      7       9.9542      0.00000
      8      12.0914      0.00000
      9      12.5260      0.00000
     10      32.4205      0.00000
     11      32.4206      0.00000
     12      33.2176      0.00000
     13      38.1216      0.00000
     14      51.8822      0.00000
     15      51.8825      0.00000
     16      52.6034      0.00000

 soft charge-density along one line, spin component           1
         0         1         2         3         4         5         6         7         8         9
 total charge-density along one line

------------------------ aborting loop because EDIFF is reached ----------------------------------------

 total charge

# of ion     s       p       d       tot
  1        0.455   0.383   9.200  10.037

  FREE ENERGIE OF THE ION-ELECTRON SYSTEM (eV)
  free  energy   TOTEN  =        -3.723617 eV

  energy  without entropy=       -3.723617  energy(sigma->0) =       -3.723617

  FORCE on cell =-STRESS in cart. coord.  units (eV/reduce length):
  Direction    X        Y        Z        XY       YZ       ZX
  Alpha Z    107.26    107.26    107.26
  Ewald     -367.80   -367.80   -367.80      0.00      0.00      0.00
  Hartree    101.83    101.83    101.83      0.00      0.00      0.00
  E(xc)      -62.94    -62.94    -62.94      0.00      0.00      0.00
  Local      122.78    122.78    122.78      0.00      0.00      0.00
  n-local    -36.15    -37.50    -36.79     -0.91      0.65      1.05
  augment     56.60     56.60     56.60     -0.00     -0.00     -0.00
  Kinetic     77.26     81.53     78.09      2.88     -2.39     -2.25
  Total       -0.12     -0.12     -0.12     -0.00      0.00     -0.00
  in kB      -16.58    -16.58    -16.58     -0.00      0.00     -0.00

 VOLUME and BASIS-vectors are now :
  energy-cutoff  :      273.25
  volume of cell :       11.86
      direct lattice vectors                 reciprocal lattice vectors
     1.810000000  1.810000000  0.000000000     0.276243094  0.276243094 -0.276243094
     0.000000000  1.810000000  1.810000000    -0.276243094  0.276243094  0.276243094
     1.810000000  0.000000000  1.810000000     0.276243094 -0.276243094  0.276243094

  length of vectors
     2.559726548  2.559726548  2.559726548     0.478467074  0.478467074  0.478467074

 FORCES acting on ions
    electron-ion (+dipol)            ewald-force                    non-local-force                 convergence-correction
   -.214E-13 0.465E-14 -.336E-13   0.300E-14 0.640E-15 -.775E-16   -.107E-24 -.776E-25 -.159E-24   -.113E-13 -.894E-14 -.186E-13
   -.214E-13 0.465E-14 -.336E-13   0.300E-14 0.640E-15 -.775E-16   -.107E-24 -.776E-25 -.159E-24   -.113E-13 -.894E-14 -.186E-13

 POSITION                                       TOTAL-FORCE (eV/Angst)
      0.00000      0.00000      0.00000         0.000000     -0.000000     -0.000000
    total drift:                               -0.000000     -0.000000     -0.000000

 mean value of Nose-termostat <S>:     1.000 mean value of <T> :     0.000
 mean temperature <T/S>/<1/S>  :     0.000

 writing wavefunctions

 total charge

# of ion     s       p       d       tot
  1        0.455   0.383   9.200  10.037

 BZINTS: Fermi energy:  3.751112; 11.000000 electrons
         Band energy:   7.402502;  BLOECHL correction: -0.003493